c
p cnf 37 55
-28 -15 0
-4 1 0
33 25 0
23 32 0
-36 -6 0
-32 -31 0
26 14 0
7 3 0
-16 -23 0
31 -35 0
-29 -21 0
-32 -21 0
-2 -35 0
26 -32 0
-18 -2 0
-19 8 0
9 -2 0
8 -18 0
-12 -8 0
-19 -10 0
-30 -7 0
-10 -3 0
4 -31 0
-6 8 0
-15 32 0
8 -29 0
13 27 0
1 8 0
-22 37 0
-17 -8 0
25 -33 0
25 -1 0
28 17 0
-3 -1 0
-28 -23 0
-1 -16 0
29 22 0
22 -9 0
-36 -34 0
-36 10 0
-8 28 0
19 37 0
-24 13 0
-5 -13 0
12 -23 0
19 25 0
-13 1 0
-23 -32 0
6 23 0
-4 -32 0
-30 1 0
30 -3 0
-23 32 0
35 37 0
3 -32 0
